1268166
0,4,34,97,100,44,89,23,108,9,63,21,103,57,53,101,99,104,92,95,61,107,32,77,105,54,11,59,41,49,6,64,87,17,75,72,18,86,98,70,46,96,90,88,10,48,65,76,8,36,25,40,37,71,56,74,85,26,68,69,30,38,13,7,35,27,39,67,12,20,16,52,79,47,14,22,73,55,102,91,3,66,78,2,82,24,62,19,43,42,84,60,29,5,94,31,83,50,58,1,80,45,93,106,15,28,51,33,81,0